Read MPS format model from file dat/rmp/4node_2048_24.mps
Reading time = 0.09 seconds
: 2108 rows, 11614 columns, 281690 nonzeros
Gurobi Optimizer version 9.0.0 build v9.0.0rc2 (linux64)
Optimize a model with 2108 rows, 11614 columns and 281690 nonzeros
Model fingerprint: 0xcc29686b
Coefficient statistics:
  Matrix range     [3e-03, 2e+01]
  Objective range  [3e-02, 1e+04]
  Bounds range     [0e+00, 0e+00]
  RHS range        [1e+00, 8e+01]
Ordering time: 0.00s

Barrier statistics:
 AA' NZ     : 9.971e+04
 Factor NZ  : 1.227e+05 (roughly 7 MBytes of memory)
 Factor Ops : 7.666e+06 (less than 1 second per iteration)
 Threads    : 1

                  Objective                Residual
Iter       Primal          Dual         Primal    Dual     Compl     Time
   0   2.52391433e+07  0.00000000e+00  1.49e+04 4.80e+02  6.06e+04     0s
   1   1.99303640e+06 -1.94655654e+07  1.13e+03 2.93e+03  6.48e+03     0s
   2   6.14657431e+05 -1.54057489e+07  3.33e+02 2.03e+03  2.85e+03     0s
   3   1.74182661e+05 -1.03601900e+07  6.44e+01 1.06e+03  1.31e+03     0s
   4   7.36345614e+04 -4.67796099e+06  3.76e+00 4.30e+02  5.31e+02     0s
   5   5.78051476e+04 -2.26226051e+05  6.66e-10 2.13e+01  3.01e+01     0s
   6   2.61130834e+04 -8.88075886e+04  2.62e-10 7.93e+00  1.18e+01     0s
   7   1.33895358e+04 -3.60291128e+04  1.51e-10 3.25e+00  4.97e+00     0s
   8   1.48216924e+03 -1.83341090e+04  5.07e-11 1.49e+00  2.01e+00     0s
   9   3.48675679e+02 -6.49876672e+03  1.17e-10 3.93e-01  6.71e-01     0s
  10   1.87562222e+01 -5.23892776e+03  5.83e-10 3.12e-01  5.14e-01     0s
  11  -1.56314826e+02 -4.24868124e+03  5.78e-10 2.27e-01  3.99e-01     0s
  12  -2.26465564e+02 -2.24282779e+03  6.58e-10 1.05e-01  1.95e-01     0s
  13  -3.43368493e+02 -4.92931491e+02  4.00e-10 2.82e-03  1.35e-02     0s
  14  -3.74994260e+02 -4.77644192e+02  1.01e-09 1.69e-03  9.19e-03     0s
  15  -4.07548986e+02 -4.48736525e+02  1.64e-09 3.01e-04  3.61e-03     0s
  16  -4.30039544e+02 -4.43551172e+02  2.12e-08 5.44e-05  1.18e-03     0s
  17  -4.39990544e+02 -4.42221118e+02  2.44e-08 5.66e-06  1.94e-04     0s
  18  -4.41662208e+02 -4.41924764e+02  1.04e-07 2.58e-06  2.32e-05     0s
  19  -4.41669945e+02 -4.41838932e+02  7.05e-07 1.49e-06  1.49e-05     0s
  20  -4.41676088e+02 -4.41774829e+02  1.21e-06 3.22e-07  8.59e-06     0s
  21  -4.41727508e+02 -4.41753052e+02  2.44e-06 9.23e-08  2.23e-06     0s
  22  -4.41728005e+02 -4.41747123e+02  4.25e-06 4.74e-08  1.67e-06     0s
  23  -4.41729661e+02 -4.41744147e+02  1.20e-05 2.86e-08  1.29e-06     0s
  24  -4.41733309e+02 -4.41737986e+02  2.91e-05 1.90e-09  5.09e-07     1s
  25  -4.41737136e+02 -4.41737506e+02  1.44e-05 5.82e-11  7.83e-08     1s
  26  -4.41737470e+02 -4.41737500e+02  8.27e-07 2.91e-11  4.55e-09     1s
  27  -4.41737500e+02 -4.41737500e+02  1.29e-09 5.82e-11  4.55e-12     1s

Barrier solved model in 27 iterations and 0.57 seconds
Optimal objective -4.41737500e+02

Solve time: 0.566138878
Barrier iterations: 27
